NAME : Euclidean Random Tour : n = 100, sample = 9 
COMMENT : Coordinates are generated uniformly sampled from [0, 100000] x [0, 100000] 
DIMENSION : 100 
EDGE_WEIGHT_TYPE : EUC_2D 
TOUR_SECTION 
1
21
75
19
2
69
95
42
90
82
28
66
47
86
30
54
41
62
59
64
99
96
68
44
20
5
91
52
36
61
85
13
56
40
76
83
25
87
27
72
73
65
46
18
55
4
98
14
35
43
48
89
39
94
33
37
29
93
77
51
67
79
57
97
7
15
49
45
70
81
74
71
17
8
6
100
84
23
11
38
3
92
10
58
88
32
80
78
31
9
50
22
60
16
24
53
12
63
26
34
-1
